98 50 61 55 26 59 41 65 42 6 82 49 16 4 76 73 85 30 29 14 3 47 7 87 13 80 28 62 1 33 15 23 8 17 72 32 69 57 20 5 18 45 46 53 31 68 36 63 81 12 93 0 60 27 58 56 86 24 66 9 48 34 95 92 54 79 94 52 22 38 84 44 19 25 43 40 21 99 35 39 74 11 37 51 91 96 64 90 70 77 71 83 88 97 75 78 67 10 89 2